NAME          
ROWS
 N  OBJ
 L  c1
COLUMNS
    MARKER    'MARKER'                 'INTORG'
    x[1]      c1        58
    x[1]      OBJ       -995
    x[2]      c1        891
    x[2]      OBJ       -520
    x[3]      c1        480
    x[3]      OBJ       -602
    x[4]      c1        484
    x[4]      OBJ       -564
    x[5]      c1        135
    x[5]      OBJ       -395
    x[6]      c1        409
    x[6]      OBJ       -30
    x[7]      c1        31
    x[7]      OBJ       -714
    x[8]      c1        743
    x[8]      OBJ       -838
    x[9]      c1        187
    x[9]      OBJ       -577
    x[10]     c1        232
    x[10]     OBJ       -762
    x[11]     c1        658
    x[11]     OBJ       -843
    x[12]     c1        952
    x[12]     OBJ       -763
    x[13]     c1        834
    x[13]     OBJ       -972
    x[14]     c1        889
    x[14]     OBJ       -516
    x[15]     c1        317
    x[15]     OBJ       -720
    x[16]     c1        197
    x[16]     OBJ       -242
    x[17]     c1        233
    x[17]     OBJ       -736
    x[18]     c1        21
    x[18]     OBJ       -661
    x[19]     c1        279
    x[19]     OBJ       -121
    x[20]     c1        934
    x[20]     OBJ       -103
    x[21]     c1        4
    x[21]     OBJ       -451
    x[22]     c1        727
    x[22]     OBJ       -657
    x[23]     c1        539
    x[23]     OBJ       -721
    x[24]     c1        16
    x[24]     OBJ       -626
    x[25]     c1        926
    x[25]     OBJ       -541
    x[26]     c1        222
    x[26]     OBJ       -321
    x[27]     c1        278
    x[27]     OBJ       -386
    x[28]     c1        143
    x[28]     OBJ       -794
    x[29]     c1        509
    x[29]     OBJ       -930
    x[30]     c1        443
    x[30]     OBJ       -626
RHS
    rhs       c1        6386
RANGES
BOUNDS
 BV bounds    x[1]
 BV bounds    x[2]
 BV bounds    x[3]
 BV bounds    x[4]
 BV bounds    x[5]
 BV bounds    x[6]
 BV bounds    x[7]
 BV bounds    x[8]
 BV bounds    x[9]
 BV bounds    x[10]
 BV bounds    x[11]
 BV bounds    x[12]
 BV bounds    x[13]
 BV bounds    x[14]
 BV bounds    x[15]
 BV bounds    x[16]
 BV bounds    x[17]
 BV bounds    x[18]
 BV bounds    x[19]
 BV bounds    x[20]
 BV bounds    x[21]
 BV bounds    x[22]
 BV bounds    x[23]
 BV bounds    x[24]
 BV bounds    x[25]
 BV bounds    x[26]
 BV bounds    x[27]
 BV bounds    x[28]
 BV bounds    x[29]
 BV bounds    x[30]
ENDATA
